Route #1: 8 46 47 36 49 64 11 19
Route #2: 14 44 38 86 16 91
Route #3: 80 24 29 78 34 35 65 71 66 20
Route #4: 73 72 74 75 22 41 15 43 42 57
Route #5: 21 56 39 67 23 25 55
Route #6: 60 84 17 45 61 85 100 37 92
Route #7: 50 51 9 81 33 79 3
Route #8: 5 83 7 48 82 18
Route #9: 88 62 10 63 90 32 30 70 69
Route #10: 6 96 99 93 98 59 94
Route #11: 40 4 54 68 77 76
Route #12: 58 2 87 97 95 13
Route #13: 53 12 26 1 31 52 89
Route #14: 27 28
Cost 1138.9146235150258